(set-info :smt-lib-version 2.6)
(set-logic QF_UFLRA)
(set-info :source |
MathSat group

|)
(set-info :category "random")
(set-info :status unsat)
(declare-fun x0 () Real)
(declare-fun x1 () Real)
(declare-fun x2 () Real)
(declare-fun x3 () Real)
(declare-fun x4 () Real)
(declare-fun x5 () Real)
(declare-fun x6 () Real)
(declare-fun x7 () Real)
(declare-fun x8 () Real)
(declare-fun x9 () Real)
(declare-fun x10 () Real)
(declare-fun x11 () Real)
(declare-fun x12 () Real)
(declare-fun x13 () Real)
(declare-fun x14 () Real)
(declare-fun x15 () Real)
(declare-fun x16 () Real)
(declare-fun x17 () Real)
(declare-fun x18 () Real)
(declare-fun x19 () Real)
(declare-fun x20 () Real)
(declare-fun x21 () Real)
(declare-fun x22 () Real)
(declare-fun x23 () Real)
(declare-fun x24 () Real)
(declare-fun x25 () Real)
(declare-fun x26 () Real)
(declare-fun x27 () Real)
(declare-fun x28 () Real)
(declare-fun x29 () Real)
(declare-fun f0_1 (Real) Real)
(declare-fun f0_2 (Real Real) Real)
(declare-fun f0_3 (Real Real Real) Real)
(declare-fun f0_4 (Real Real Real Real) Real)
(declare-fun P0 () Bool)
(declare-fun P1 () Bool)
(declare-fun P2 () Bool)
(declare-fun P3 () Bool)
(declare-fun P4 () Bool)
(declare-fun P5 () Bool)
(declare-fun P6 () Bool)
(declare-fun P7 () Bool)
(declare-fun P8 () Bool)
(declare-fun P9 () Bool)
(declare-fun P10 () Bool)
(declare-fun P11 () Bool)
(declare-fun P12 () Bool)
(declare-fun P13 () Bool)
(declare-fun P14 () Bool)
(declare-fun P15 () Bool)
(declare-fun P16 () Bool)
(declare-fun P17 () Bool)
(declare-fun P18 () Bool)
(declare-fun P19 () Bool)
(declare-fun P20 () Bool)
(declare-fun P21 () Bool)
(declare-fun P22 () Bool)
(declare-fun P23 () Bool)
(declare-fun P24 () Bool)
(declare-fun P25 () Bool)
(declare-fun P26 () Bool)
(declare-fun P27 () Bool)
(declare-fun P28 () Bool)
(declare-fun P29 () Bool)
(assert (let ((?v_18 (* 3 x21)) (?v_1 (<= (- (- (* 7 x20) (* 42 x9)) (* 7 x28)) 24)) (?v_65 (* 16 x11)) (?v_32 (f0_1 x14))) (let ((?v_28 (= ?v_32 (f0_2 x23 x22))) (?v_117 (= (f0_1 x12) (f0_1 x28))) (?v_27 (f0_1 x5))) (let ((?v_46 (distinct (f0_1 x17) ?v_27)) (?v_76 (f0_1 x26))) (let ((?v_14 (= (f0_1 x3) ?v_76)) (?v_44 (= (f0_1 x7) x6)) (?v_42 (= (f0_2 x10 x20) (f0_2 x6 x12))) (?v_0 (f0_1 x2))) (let ((?v_13 (distinct (f0_1 x13) ?v_0)) (?v_102 (= (f0_2 x18 x12) x23)) (?v_91 (= ?v_76 x0)) (?v_88 (distinct x12 x13)) (?v_31 (f0_1 x8))) (let ((?v_19 (distinct ?v_31 (f0_2 x21 x21))) (?v_15 (distinct x0 (f0_1 x24))) (?v_48 (distinct (f0_1 x23) (f0_2 x3 x8))) (?v_45 (distinct x8 ?v_27)) (?v_77 (= (f0_2 x23 x25) x12)) (?v_129 (= (f0_2 x18 x14) x3)) (?v_10 (distinct x28 (f0_1 x4))) (?v_87 (= (f0_2 x26 x4) x19)) (?v_16 (= (f0_2 x11 x29) (f0_2 x17 x18))) (?v_62 (f0_1 x22))) (let ((?v_113 (= (f0_2 x0 x10) ?v_62)) (?v_51 (distinct (f0_1 x1) (f0_2 x10 x10))) (?v_96 (= (f0_2 x15 x6) (f0_2 x28 x9))) (?v_118 (distinct ?v_62 x19)) (?v_39 (= x26 (f0_1 x25))) (?v_131 (distinct x1 (f0_2 x7 x19))) (?v_57 (distinct ?v_31 ?v_32)) (?v_52 (= (f0_1 x21) x19)) (?v_37 (distinct x29 (f0_2 x17 x17))) (?v_137 (distinct ?v_0 x29)) (?v_120 (distinct (f0_1 x11) x7))) (let ((?v_136 (not ?v_52)) (?v_3 (not P2)) (?v_49 (not ?v_14)) (?v_33 (not ?v_10)) (?v_99 (not ?v_46)) (?v_4 (not ?v_16)) (?v_35 (not ?v_1)) (?v_53 (not P1)) (?v_38 (not P12)) (?v_12 (not P11)) (?v_17 (not P8)) (?v_140 (not P4)) (?v_60 (not P5)) (?v_81 (not ?v_117)) (?v_25 (not ?v_19)) (?v_93 (not ?v_118)) (?v_55 (not P26)) (?v_26 (not P9)) (?v_127 (not P0)) (?v_59 (not P29)) (?v_80 (not ?v_28)) (?v_97 (not ?v_129)) (?v_69 (not ?v_45)) (?v_74 (not P3)) (?v_41 (not ?v_51)) (?v_90 (not P28)) (?v_109 (not P24)) (?v_43 (not ?v_42)) (?v_112 (not ?v_44)) (?v_89 (not P25)) (?v_123 (not P19)) (?v_95 (not P16)) (?v_125 (not P27)) (?v_116 (not P23)) (?v_73 (not P10)) (?v_70 (not ?v_57)) (?v_66 (not P6)) (?v_111 (not P7)) (?v_92 (not P17)) (?v_86 (not ?v_37)) (?v_119 (not ?v_39)) (?v_82 (not ?v_48)) (?v_134 (not ?v_15)) (?v_104 (not ?v_102)) (?v_148 (not ?v_77)) (?v_83 (not P20)) (?v_149 (not ?v_88)) (?v_144 (not P21)) (?v_124 (not P15)) (?v_128 (not ?v_96)) (?v_141 (not ?v_113)) (?v_132 (not P13)) (?v_147 (not ?v_131)) (?v_138 (not P22)) (?v_152 (not ?v_120)) (?v_145 (not ?v_137)) (?v_153 (not ?v_13)) (?v_158 (not ?v_87)) (?v_154 (not P18))) (let ((?v_159 (or ?v_132 P29)) (?v_160 (or ?v_53 ?v_19)) (?v_155 (not ?v_91)) (?v_157 (not P14)) (?v_11 (<= (+ (* 33 x6) ?v_18) 0)) (?v_78 (= (+ (* 29 x7) x15 (* 20 x19)) 24))) (let ((?v_63 (not ?v_78)) (?v_58 (not ?v_11)) (?v_146 (<= (+ (* 14 x7) (* 4 x25) (* 19 x17)) 44))) (let ((?v_105 (not ?v_146)) (?v_151 (<= (+ (* 18 x2) (* 42 x29) (* 21 x22)) 29))) (let ((?v_135 (not ?v_151)) (?v_20 (<= (+ (* 6 x3) ?v_65 (* 14 x4)) (- 35)))) (let ((?v_2 (not ?v_20)) (?v_7 (distinct (- (+ (* 35 x18) x20) (* 10 x25)) (- 8))) (?v_8 (= (+ (- x28 (* 13 x21)) (* 30 x18)) (- 34)))) (let ((?v_21 (not ?v_8)) (?v_6 (= (- (+ (* 38 x21) (* 12 x15)) (* 6 x7)) (- 17))) (?v_5 (<= (+ (* (- 40) x23) (* 14 x17) (* 9 x14)) (- 9))) (?v_9 (distinct (- (+ (* 9 x20) (* 41 x11)) (* 7 x24)) (- 16)))) (let ((?v_23 (not ?v_9)) (?v_29 (= (+ (* (- 14) x3) (* 19 x15) (* 18 x15)) (- 23))) (?v_84 (<= (+ (* (- 15) x25) (* 25 x14) (* 30 x7)) (- 26)))) (let ((?v_143 (not ?v_84)) (?v_110 (not ?v_6)) (?v_47 (<= (- (+ (* (- 18) x22) x8) (* 18 x19)) (- 38))) (?v_22 (not ?v_7)) (?v_98 (< (- (- (* (- 27) x5) (* 24 x13)) (* 27 x6)) 13))) (let ((?v_56 (not ?v_98)) (?v_61 (distinct (+ (* (- 27) x3) (* 14 x23) (* 38 x16)) 27)) (?v_114 (<= (+ (- 0 (* 23 x2)) (* 35 x20)) (- 31)))) (let ((?v_36 (not ?v_114)) (?v_30 (<= (- (- x28 (* 39 x25)) (* 28 x7)) (- 5))) (?v_24 (= (+ (- (* 31 x23) (* 22 x15)) (* 30 x20)) (- 26))) (?v_68 (not ?v_5)) (?v_54 (<= (- (+ (* (- 41) x21) ?v_18) (* 16 x27)) (- 34))) (?v_40 (< (+ (- (* 39 x4) (* 20 x24)) (* 35 x6)) (- 36))) (?v_150 (<= (+ (- (* 10 x0) (* 10 x15)) (* 16 x19)) (- 42)))) (let ((?v_79 (not ?v_150)) (?v_64 (<= (+ (* (- 34) x15) (* 17 x14) (* 11 x7)) 6)) (?v_34 (< (+ (- (* (- 24) x27) x7) (* 24 x12)) 39))) (let ((?v_50 (not ?v_34)) (?v_115 (not ?v_29)) (?v_100 (not ?v_30)) (?v_71 (not ?v_40)) (?v_103 (not ?v_47)) (?v_67 (not ?v_54)) (?v_75 (<= (+ (* (- 13) x7) (* 33 x11) (* 4 x14)) (- 40))) (?v_72 (not ?v_61)) (?v_108 (<= (+ (* (- 14) x24) (* 11 x2) ?v_65) (- 16)))) (let ((?v_133 (not ?v_108)) (?v_139 (not ?v_24)) (?v_106 (not ?v_64)) (?v_94 (= (+ (- (* (- 5) x29) (* 39 x22)) (* 27 x1)) (- 30)))) (let ((?v_126 (not ?v_94)) (?v_122 (= (+ (* (- 9) x8) (* 19 x4) (* 25 x26)) 7)) (?v_85 (not ?v_75)) (?v_107 (distinct (- (- (* (- 26) x28) (* 19 x10)) (* 8 x1)) 23))) (let ((?v_101 (not ?v_107)) (?v_121 (< (- (+ (* 22 x26) (* 7 x1)) (* 22 x4)) (- 22)))) (let ((?v_142 (not ?v_121)) (?v_130 (not ?v_122)) (?v_156 (or ?v_113 ?v_47))) (and (and (and (and (and (and (and (and (and (and (and (and (and (and (and (and (and (and (and (and (and (and (and (and (and (and (and (and (and (and (and (and (and (and (and (and (and (and (and (and (and (and (and (and (and (and (and (and (and (and (and (and (and (and (and (and (and (and (and (and (and (and (and (and (and (and (and (and (and (and (and (and (and (and (and (and (and (and (and (and (and (and (and (and (and (and (and (and (and (and (and (and (and (and (and (and (and (and (and (and (and (and (and (and (and (and (and (and (and (and (and (and (and (and (and (and (and (and (and (and (and (and (and (and (and (and (and (and (and (and (and (and (and (and (and (and (and (and (and (and (and (and (and (and (and (and (and (and (and (and (and (and (and (and (and (and (and (and (and (and (and (and (and (and (and (and (and (and (and (and (and (and (and (and (and (and (and (and (and (and (and (and (and (and (and (and (and (and (and (and (and (and (and (and (and (and (and (and (and (and (and (and (and (and (and (and (and (and (and (and (and (and (and (and (and (and (and (and (and (and (and (and (and (and (and (and (and (and (and (and (and (and (and (and (and (and (and (and (and (and (and (and (and (and (and (and (and (and (and (and (and (and (and (and (and (and (and (and (and (and (and (and (and (and (and (and (and (and (and (and (and (and (and (and (and (and (and (and (and (and (and (and (and (and (and (and (and (and (and (and (and (and (and (and (and (and (and (and (and (and (and (and (and (and (and (and (and (and (and (and (and (and (and (and (and (and (and (and (and (and (and (and (and (and (and (and (and (and (and (and (and (and (and (and (and (and (and (and (and (and (and (and (and (and (and (and (and (and (and (and (and (and (and (and (and (and (and (and (and (and (and (and (and (and (and (and (and (and (and (and (and (and (and (and (and (and (and (and (and (and (and (and (and (and (and (and (and (and (and (and (and (and (and (and (and (and (and (and (and (and (and (and (and (and (and (and (and (and (and (and (and (and (and (and (and (and (and (and (and (and (and (and (and (and (and (and (and (and (and (and (and (and (and (and (and (and (and (and (and (and (and (and (and (and (and (and (and (and (and (or (or ?v_96 P20) ?v_136) (or (or ?v_2 P25) ?v_7)) (or (or ?v_3 P27) ?v_21)) (or (or ?v_13 P14) ?v_1)) (or (or ?v_49 ?v_6) ?v_5)) (or (or ?v_33 ?v_99) ?v_15)) (or (or ?v_4 ?v_23) P20)) (or (or ?v_137 P4) ?v_35)) (or (or ?v_2 ?v_29) ?v_3)) (or (or P27 P14) ?v_48)) (or (or P2 ?v_4) ?v_5)) (or (or P16 ?v_53) ?v_38)) (or (or ?v_143 P8) ?v_12)) (or (or ?v_77 ?v_11) ?v_110)) (or (or P9 ?v_47) P26)) (or (or P27 ?v_22) ?v_8)) (or (or ?v_9 ?v_10) ?v_17)) (or (or ?v_10 ?v_11) ?v_56)) (or (or ?v_12 ?v_140) ?v_13)) (or (or ?v_14 ?v_61) ?v_15)) (or (or ?v_44 P24) ?v_36)) (or (or ?v_60 P20) ?v_6)) (or (or ?v_30 ?v_16) ?v_81)) (or (or ?v_17 ?v_24) ?v_25)) (or (or P14 P3) P0)) (or (or ?v_93 ?v_68) ?v_54)) (or (or P20 ?v_40) ?v_19)) (or (or ?v_37 ?v_63) ?v_55)) (or (or ?v_26 ?v_79) ?v_20)) (or (or P15 ?v_21) ?v_127)) (or (or ?v_120 ?v_59) ?v_80)) (or (or P20 ?v_2) ?v_22)) (or (or ?v_23 ?v_10) P14)) (or (or P24 ?v_97) ?v_19)) (or (or ?v_58 ?v_24) P12)) (or (or ?v_64 ?v_25) ?v_39)) (or (or P2 ?v_26) ?v_69)) (or (or ?v_74 ?v_41) ?v_28)) (or (or ?v_50 ?v_115) ?v_25)) (or (or ?v_100 ?v_1) ?v_57)) (or (or P19 ?v_33) P5)) (or (or ?v_90 ?v_34) ?v_35)) (or (or ?v_8 ?v_36) ?v_37)) (or (or ?v_38 ?v_22) ?v_39)) (or (or ?v_109 ?v_71) ?v_43)) (or (or ?v_41 ?v_42) P22)) (or (or ?v_43 ?v_12) ?v_112)) (or (or ?v_21 ?v_45) ?v_20)) (or (or ?v_46 ?v_103) P11)) (or (or ?v_2 ?v_89) ?v_48)) (or (or ?v_21 ?v_30) ?v_123)) (or (or ?v_49 ?v_50) P15)) (or (or ?v_51 ?v_95) ?v_52)) (or (or ?v_53 ?v_125) ?v_116)) (or (or P19 P20) P10)) (or (or ?v_51 ?v_67) ?v_75)) (or (or ?v_5 ?v_17) ?v_88)) (or (or ?v_55 ?v_56) ?v_131)) (or (or ?v_52 ?v_57) ?v_58)) (or (or ?v_10 ?v_73) P22)) (or (or ?v_59 ?v_60) ?v_39)) (or (or ?v_72 ?v_113) ?v_63)) (or (or ?v_52 P7) ?v_70)) (or (or P12 ?v_66) ?v_5)) (or (or ?v_25 P26) ?v_111)) (or (or ?v_21 ?v_43) ?v_13)) (or (or ?v_4 ?v_64) ?v_133)) (or (or ?v_87 P27) ?v_52)) (or (or ?v_66 ?v_67) ?v_45)) (or (or ?v_139 ?v_28) P4)) (or (or ?v_68 ?v_50) ?v_47)) (or (or ?v_56 ?v_69) ?v_34)) (or (or ?v_92 ?v_106) ?v_42)) (or (or ?v_15 ?v_86) ?v_126)) (or (or ?v_70 ?v_71) ?v_72)) (or (or ?v_29 ?v_12) ?v_73)) (or (or ?v_119 ?v_74) ?v_105)) (or (or ?v_29 ?v_82) ?v_24)) (or (or ?v_75 ?v_68) ?v_91)) (or (or P7 ?v_134) ?v_71)) (or (or ?v_41 ?v_104) ?v_148)) (or (or ?v_35 ?v_78) ?v_11)) (or (or ?v_79 ?v_59) ?v_26)) (or (or P4 P23) ?v_83)) (or (or ?v_53 P2) P20)) (or (or ?v_122 ?v_85) ?v_80)) (or (or ?v_81 P18) ?v_42)) (or (or ?v_82 ?v_83) ?v_135)) (or (or P22 ?v_84) ?v_53)) (or (or ?v_6 ?v_85) ?v_86)) (or (or ?v_87 ?v_149) ?v_36)) (or (or ?v_89 ?v_42) ?v_144)) (or (or ?v_42 ?v_47) ?v_67)) (or (or ?v_11 ?v_3) ?v_90)) (or (or ?v_42 P11) ?v_101)) (or (or ?v_87 ?v_79) ?v_124)) (or (or ?v_23 ?v_91) P12)) (or (or ?v_48 ?v_64) ?v_121)) (or (or ?v_92 ?v_9) ?v_93)) (or (or P15 ?v_94) ?v_95)) (or (or ?v_128 ?v_82) ?v_19)) (or (or ?v_2 ?v_16) ?v_97)) (or (or ?v_30 P23) P4)) (or (or P25 ?v_98) P20)) (or (or ?v_64 ?v_61) ?v_82)) (or (or ?v_57 ?v_10) P8)) (or (or P19 ?v_99) P23)) (or (or ?v_99 ?v_87) ?v_100)) (or (or P8 ?v_58) P4)) (or (or ?v_43 ?v_30) ?v_5)) (or (or ?v_101 ?v_7) ?v_26)) (or (or P1 ?v_97) P12)) (or (or ?v_5 ?v_102) ?v_103)) (or (or ?v_104 ?v_105) P8)) (or (or ?v_80 ?v_73) P16)) (or (or ?v_9 ?v_106) ?v_58)) (or (or ?v_71 ?v_107) P13)) (or (or ?v_99 ?v_92) ?v_11)) (or (or P8 P18) ?v_51)) (or (or ?v_6 ?v_48) ?v_108)) (or (or ?v_109 P17) ?v_42)) (or (or P15 ?v_110) ?v_2)) (or (or ?v_53 ?v_91) P9)) (or (or ?v_67 ?v_111) ?v_74)) (or (or ?v_75 ?v_4) ?v_112)) (or (or P9 ?v_60) ?v_113)) (or (or ?v_114 ?v_47) P0)) (or (or ?v_8 ?v_115) P1)) (or (or ?v_116 ?v_15) ?v_70)) (or (or ?v_59 ?v_54) ?v_11)) (or (or ?v_37 ?v_64) P20)) (or (or ?v_23 ?v_57) ?v_82)) (or (or ?v_80 ?v_117) ?v_53)) (or (or ?v_10 P26) ?v_83)) (or (or P5 ?v_85) ?v_56)) (or (or ?v_53 ?v_77) ?v_105)) (or (or P29 ?v_114) ?v_2)) (or (or P0 ?v_101) ?v_141)) (or (or P0 ?v_103) P8)) (or (or P3 ?v_15) ?v_64)) (or (or ?v_118 ?v_105) ?v_61)) (or (or P25 ?v_119) P22)) (or (or ?v_36 ?v_120) ?v_112)) (or (or P5 P8) ?v_142)) (or (or ?v_81 ?v_86) ?v_95)) (or (or ?v_37 ?v_130) ?v_13)) (or (or ?v_45 ?v_17) ?v_14)) (or (or ?v_114 P18) P0)) (or (or ?v_40 ?v_84) ?v_123)) (or (or P3 P18) P21)) (or (or ?v_89 P22) ?v_93)) (or (or ?v_84 ?v_88) ?v_38)) (or (or ?v_36 ?v_124) ?v_125)) (or (or ?v_34 ?v_107) P22)) (or (or P25 ?v_38) ?v_11)) (or (or ?v_68 ?v_126) ?v_127)) (or (or ?v_79 ?v_41) ?v_97)) (or (or ?v_132 ?v_19) ?v_83)) (or (or ?v_106 P26) ?v_77)) (or (or P14 P7) ?v_49)) (or (or ?v_69 ?v_128) ?v_75)) (or (or ?v_23 ?v_129) ?v_49)) (or (or ?v_25 ?v_44) ?v_121)) (or (or ?v_97 ?v_130) P13)) (or (or ?v_86 ?v_29) P26)) (or (or P15 ?v_102) ?v_61)) (or (or ?v_85 ?v_120) ?v_110)) (or (or ?v_33 ?v_77) ?v_114)) (or (or P3 ?v_58) ?v_127)) (or (or P22 ?v_131) ?v_45)) (or (or P10 P24) ?v_4)) (or (or ?v_39 ?v_79) ?v_78)) (or (or ?v_24 P10) ?v_69)) (or (or ?v_37 ?v_67) P9)) (or (or P12 ?v_71) P17)) (or (or P25 ?v_110) ?v_50)) (or (or ?v_121 P23) ?v_6)) (or (or P11 ?v_3) ?v_130)) (or (or ?v_147 ?v_48) ?v_8)) (or (or ?v_74 ?v_91) ?v_117)) (or (or ?v_132 ?v_48) ?v_13)) (or (or P10 P21) ?v_64)) (or (or ?v_133 P6) ?v_101)) (or (or ?v_46 ?v_138) ?v_98)) (or (or P12 ?v_121) ?v_152)) (or (or ?v_106 ?v_112) ?v_134)) (or (or ?v_60 ?v_64) ?v_111)) (or (or P5 ?v_118) ?v_51)) (or (or P17 ?v_74) P9)) (or (or P6 ?v_37) ?v_135)) (or (or ?v_136 ?v_145) ?v_98)) (or (or ?v_19 ?v_13) ?v_109)) (or (or P12 P16) ?v_52)) (or (or ?v_96 ?v_90) ?v_97)) (or (or ?v_96 ?v_99) P29)) (or (or P8 ?v_25) ?v_80)) (or (or P28 ?v_2) ?v_129)) (or (or ?v_138 ?v_10) ?v_79)) (or (or ?v_116 P3) ?v_10)) (or (or ?v_37 ?v_30) P0)) (or (or ?v_103 ?v_109) ?v_110)) (or ?v_156 ?v_39)) (or (or ?v_104 ?v_100) ?v_113)) (or (or ?v_41 ?v_109) P26)) (or (or P29 ?v_105) ?v_33)) (or (or ?v_139 ?v_113) ?v_25)) (or (or P12 ?v_51) ?v_66)) (or (or ?v_140 P10) P7)) (or (or P15 ?v_14) ?v_96)) (or (or ?v_63 ?v_46) ?v_34)) (or (or ?v_14 ?v_85) P3)) (or (or P3 ?v_21) ?v_91)) (or (or P15 P17) ?v_66)) (or (or ?v_29 ?v_51) ?v_108)) (or (or ?v_16 ?v_10) ?v_138)) (or (or ?v_44 ?v_63) ?v_139)) (or (or ?v_9 ?v_11) ?v_20)) (or (or P19 ?v_141) ?v_97)) (or (or ?v_97 P15) ?v_48)) (or (or ?v_42 ?v_72) ?v_142)) (or (or ?v_22 ?v_64) ?v_99)) (or (or ?v_43 ?v_22) ?v_44)) (or (or ?v_90 ?v_24) ?v_143)) (or (or ?v_118 ?v_109) ?v_57)) (or (or ?v_153 ?v_12) ?v_74)) (or (or ?v_104 ?v_60) ?v_92)) (or (or ?v_144 ?v_89) ?v_29)) (or (or ?v_86 ?v_124) ?v_94)) (or (or P20 ?v_97) ?v_35)) (or (or ?v_36 ?v_85) ?v_89)) (or (or ?v_91 ?v_145) ?v_60)) (or (or ?v_2 ?v_59) P19)) (or (or ?v_47 ?v_8) P19)) (or (or P18 P24) ?v_50)) (or (or P26 ?v_109) ?v_23)) (or (or P20 ?v_10) ?v_120)) (or (or ?v_15 ?v_100) ?v_41)) (or (or ?v_140 ?v_113) ?v_146)) (or (or ?v_147 ?v_148) ?v_133)) (or (or ?v_36 ?v_149) ?v_144)) (or (or P17 ?v_70) P26)) (or (or P20 ?v_6) ?v_48)) (or (or ?v_57 ?v_45) ?v_75)) (or (or P20 ?v_36) ?v_147)) (or (or ?v_139 ?v_71) ?v_25)) (or (or ?v_44 P6) ?v_79)) (or (or ?v_6 ?v_15) ?v_150)) (or (or ?v_22 ?v_95) ?v_145)) (or (or ?v_70 ?v_87) ?v_67)) (or (or P3 ?v_146) ?v_135)) (or (or ?v_36 ?v_135) ?v_88)) (or (or ?v_135 P2) ?v_107)) (or (or ?v_6 P25) P4)) (or (or ?v_37 ?v_8) ?v_90)) (or (or ?v_150 ?v_67) ?v_29)) (or (or ?v_102 ?v_77) ?v_54)) (or (or ?v_79 ?v_132) ?v_40)) (or (or ?v_151 ?v_12) P9)) (or (or ?v_51 ?v_70) ?v_98)) (or (or P9 ?v_73) ?v_135)) (or (or ?v_93 P26) ?v_53)) (or (or ?v_128 ?v_94) ?v_23)) (or (or P7 ?v_40) ?v_13)) (or (or P23 ?v_123) ?v_20)) (or (or ?v_39 P10) ?v_4)) (or (or ?v_96 P13) ?v_39)) (or (or ?v_13 ?v_81) ?v_34)) (or (or P10 ?v_55) ?v_72)) (or (or ?v_117 ?v_158) ?v_152)) (or (or ?v_11 ?v_114) ?v_153)) (or (or ?v_28 ?v_20) ?v_119)) (or (or ?v_108 ?v_14) ?v_90)) (or (or ?v_106 ?v_100) ?v_33)) (or (or ?v_56 ?v_71) ?v_70)) (or (or P20 ?v_8) ?v_3)) (or (or ?v_74 P5) P29)) (or (or P4 ?v_140) ?v_41)) (or (or P28 ?v_79) ?v_39)) (or (or P2 ?v_85) ?v_100)) (or (or ?v_148 ?v_88) ?v_36)) (or (or ?v_3 ?v_137) ?v_36)) (or (or ?v_45 ?v_122) ?v_145)) (or (or ?v_116 ?v_73) ?v_63)) (or (or ?v_131 ?v_87) ?v_150)) (or (or ?v_140 ?v_52) ?v_92)) (or (or ?v_90 ?v_119) ?v_17)) (or (or ?v_93 P11) P9)) (or (or ?v_93 ?v_122) P10)) (or (or ?v_88 ?v_85) ?v_90)) (or (or ?v_22 ?v_46) ?v_116)) (or (or ?v_143 P22) ?v_93)) (or (or ?v_30 ?v_29) ?v_121)) (or (or ?v_130 P5) ?v_34)) (or (or ?v_92 ?v_114) P27)) (or (or ?v_37 ?v_119) ?v_45)) (or (or ?v_154 ?v_110) ?v_92)) (or (or ?v_35 ?v_42) ?v_122)) (or (or ?v_88 ?v_107) ?v_80)) (or (or P19 ?v_147) ?v_88)) (or (or ?v_92 ?v_4) ?v_60)) (or (or ?v_101 ?v_95) ?v_42)) (or (or ?v_102 ?v_35) ?v_66)) (or (or ?v_71 ?v_88) ?v_130)) (or ?v_159 ?v_140)) (or (or ?v_42 ?v_55) ?v_77)) (or (or ?v_117 ?v_38) P29)) (or (or ?v_148 ?v_101) ?v_95)) (or (or ?v_110 ?v_141) P14)) (or (or ?v_111 P11) ?v_150)) (or (or ?v_64 ?v_60) P19)) (or (or ?v_28 ?v_95) ?v_33)) (or (or ?v_37 ?v_143) P22)) (or (or ?v_5 ?v_54) P12)) (or (or ?v_28 ?v_133) P19)) (or ?v_160 ?v_106)) (or (or ?v_110 ?v_49) ?v_75)) (or (or P28 ?v_17) ?v_155)) (or (or ?v_104 ?v_94) P19)) (or (or ?v_33 ?v_145) ?v_121)) (or (or ?v_87 P1) ?v_112)) (or (or P26 ?v_42) ?v_38)) (or (or ?v_41 ?v_61) ?v_9)) (or (or ?v_69 ?v_154) ?v_59)) (or (or ?v_38 ?v_157) ?v_87)) (or (or ?v_155 ?v_119) ?v_25)) (or (or ?v_88 ?v_84) P4)) (or (or ?v_14 P5) ?v_137)) (or (or ?v_23 ?v_142) ?v_12)) (or (or ?v_57 ?v_149) ?v_48)) (or (or ?v_99 ?v_29) ?v_8)) (or (or ?v_21 ?v_145) ?v_55)) (or (or P24 P26) ?v_102)) (or (or ?v_138 ?v_8) P7)) (or (or ?v_52 ?v_94) ?v_42)) (or (or ?v_139 ?v_136) ?v_128)) (or (or ?v_115 ?v_145) ?v_53)) (or (or P14 P11) ?v_121)) (or (or P3 ?v_154) ?v_109)) (or (or ?v_26 ?v_91) ?v_136)) (or (or ?v_93 ?v_119) P7)) (or ?v_156 ?v_55)) (or (or ?v_96 ?v_124) ?v_109)) (or (or ?v_102 ?v_129) ?v_66)) (or (or ?v_154 P29) P27)) (or (or ?v_131 P5) ?v_122)) (or (or P15 ?v_16) ?v_97)) (or (or ?v_14 ?v_144) P12)) (or (or ?v_134 ?v_54) ?v_75)) (or (or ?v_17 ?v_29) ?v_56)) (or (or P10 ?v_26) ?v_60)) (or (or ?v_140 ?v_126) P2)) (or (or ?v_73 ?v_36) ?v_95)) (or (or ?v_97 ?v_49) ?v_80)) (or (or ?v_111 ?v_121) ?v_113)) (or (or ?v_99 ?v_53) ?v_112)) (or (or P29 ?v_91) ?v_5)) (or (or ?v_36 P18) ?v_151)) (or (or ?v_93 ?v_109) ?v_97)) (or (or ?v_118 ?v_124) ?v_127)) (or (or ?v_150 ?v_122) ?v_92)) (or (or ?v_94 ?v_50) ?v_46)) (or (or ?v_48 ?v_134) ?v_50)) (or (or P23 P19) ?v_107)) (or (or ?v_53 P5) ?v_34)) (or (or ?v_73 ?v_2) ?v_72)) (or (or P10 ?v_92) ?v_89)) (or (or P9 ?v_4) ?v_149)) (or (or ?v_90 P29) ?v_108)) (or (or ?v_122 ?v_124) ?v_134)) (or (or P18 ?v_93) ?v_77)) (or (or ?v_26 ?v_22) ?v_72)) (or (or ?v_78 ?v_24) ?v_60)) (or (or ?v_33 ?v_69) ?v_121)) (or (or ?v_17 ?v_142) ?v_36)) (or (or ?v_92 ?v_95) ?v_75)) (or (or ?v_26 ?v_13) ?v_48)) (or (or ?v_45 P20) ?v_5)) (or (or ?v_130 ?v_96) ?v_14)) (or (or ?v_129 P8) P10)) (or (or ?v_13 ?v_79) ?v_122)) (or (or P13 ?v_85) ?v_68)) (or (or ?v_123 ?v_53) ?v_155)) (or (or ?v_119 ?v_15) P19)) (or (or ?v_23 ?v_54) ?v_151)) (or (or ?v_157 ?v_82) P13)) (or (or ?v_61 ?v_114) ?v_154)) (or (or ?v_139 ?v_84) ?v_6)) (or (or ?v_2 ?v_15) ?v_55)) (or (or ?v_142 ?v_48) P29)) (or (or ?v_21 ?v_46) ?v_105)) (or (or ?v_149 ?v_84) ?v_10)) (or (or ?v_96 P12) ?v_56)) (or (or ?v_64 ?v_153) P16)) (or (or ?v_91 ?v_37) ?v_87)) (or (or ?v_49 ?v_132) ?v_137)) (or (or ?v_40 ?v_33) ?v_119)) (or (or ?v_2 ?v_100) ?v_129)) (or (or ?v_142 P8) ?v_66)) (or (or ?v_47 ?v_68) P3)) (or (or ?v_77 P21) ?v_151)) (or (or ?v_113 ?v_3) ?v_48)) (or (or ?v_42 P19) ?v_120)) (or (or ?v_16 ?v_74) ?v_106)) (or (or P24 ?v_119) ?v_30)) (or (or ?v_75 ?v_158) ?v_84)) (or (or ?v_139 ?v_69) ?v_124)) (or (or ?v_84 P28) ?v_116)) (or (or P3 ?v_132) ?v_28)) (or (or ?v_21 ?v_108) ?v_124)) (or (or ?v_41 P9) P23)) (or (or ?v_54 ?v_138) ?v_4)) (or (or ?v_97 ?v_19) ?v_95)) (or (or ?v_64 ?v_82) ?v_52)) (or (or ?v_133 ?v_37) ?v_143)) (or (or P26 P10) ?v_152)) (or (or P5 ?v_110) ?v_78)) (or (or ?v_80 P28) ?v_44)) (or (or ?v_80 ?v_52) ?v_146)) (or (or P8 ?v_13) ?v_112)) (or (or P15 ?v_149) ?v_20)) (or (or ?v_58 ?v_139) ?v_136)) (or (or ?v_111 ?v_40) ?v_126)) (or (or ?v_97 ?v_140) P13)) (or (or ?v_127 ?v_88) ?v_80)) (or (or ?v_16 ?v_98) P14)) (or (or ?v_53 P16) ?v_30)) (or (or ?v_43 ?v_143) P11)) (or (or ?v_122 ?v_145) ?v_107)) (or (or P27 ?v_132) ?v_36)) (or (or ?v_3 ?v_80) ?v_72)) (or (or ?v_139 ?v_81) P18)) (or (or ?v_6 ?v_116) ?v_41)) (or (or P24 ?v_40) P22)) (or (or ?v_69 ?v_113) ?v_90)) (or (or ?v_135 ?v_133) ?v_114)) (or (or ?v_43 P8) ?v_14)) (or (or ?v_132 ?v_29) ?v_128)) (or (or ?v_61 P29) ?v_1)) (or (or ?v_51 ?v_105) ?v_97)) (or ?v_159 P15)) (or (or P15 P27) ?v_69)) (or (or ?v_57 P12) P16)) (or (or ?v_60 ?v_50) ?v_25)) (or (or ?v_136 ?v_117) ?v_49)) (or (or ?v_37 ?v_35) P10)) (or (or ?v_42 ?v_5) ?v_149)) (or (or ?v_94 ?v_132) ?v_107)) (or ?v_160 P26)) (or (or ?v_141 ?v_67) ?v_51)) (or (or P20 ?v_104) ?v_51)))))))))))))))))))))))))))
(check-sat)
(exit)
